peakDumbCharging = 25900; 
Machine = anon_enum(16); 
machineSpeed = [3700,3700,3700,3700,3700,3700,3700,3700,3700,3700,3700,3700,3700,3700,3700,3700]; 
machineLoad = [3700,3700,3700,3700,3700,3700,3700,3700,3700,3700,3700,3700,3700,3700,3700,3700]; 
Car = anon_enum(37); 
demandCar = [5200,6240,2240,11080,15160,5240,16720,30640,9360,5360,4760,2880,22680,3000,5040,6880,5160,7160,9720,16320,5160,9120,7000,11360,8200,9120,2840,2240,8720,9320,22440,4400,18440,2360,57520,23040,28480]; 
arrivalCar = [72,67,66,63,62,60,60,60,59,58,57,57,56,56,55,53,52,52,48,47,47,43,42,40,40,40,39,38,37,36,34,34,29,25,25,21,20]; 
departureCar = [75,71,68,67,74,64,66,73,64,61,62,59,66,59,59,57,57,56,52,54,51,49,48,48,45,43,42,40,41,40,42,38,59,27,56,29,56]; 
